16597
1 0 1 0 0 0 0 1 1 1 0 1 0 0 1 0 0 1 0 0 1 0 0 0 1 0 0 0 0 0 
20 0 8 2 20 0 2 9 14 17 9 8 8 20 7 14 14 17 11 11 2 7 9 17 9 8 2 24 24 24 0 11 2 0 20 20 24 9 7 14 0 14 24 17 24 14 7 20 0 8 0 2 14 11 8 20 17 7 0 14 0 24 20 0 0 11 9 0 9 9 2 20 11 17 9 8 9 20 14 24 20 7 8 17 17 17 17 7 20 24 2 9 17 0 7 9 2 2 7 8 8 17 17 11 17 11 7 0 14 14 14 14 2 11 11 7 24 24 24 24 11 8 11 20 8 17 11 9 7 7 0 0 24 9 8 14 7 11 20 17 0 8 20 14 8 0 11 11 2 24 
